DIMACS_lns/graph-1000-807.col
p edge 1000 1788
e 1 97
e 1 279
e 1 623
e 1 722
e 2 301
e 2 740
e 2 366
e 2 667
e 2 509
e 2 996
e 2 969
e 2 666
e 3 870
e 3 607
e 3 295
e 3 678
e 3 888
e 3 882
e 4 277
e 4 676
e 4 456
e 4 338
e 4 901
e 5 702
e 5 561
e 5 475
e 5 259
e 5 23
e 6 334
e 6 751
e 6 129
e 7 44
e 7 785
e 7 890
e 7 905
e 8 831
e 8 83
e 8 959
e 8 190
e 8 576
e 8 337
e 9 222
e 9 173
e 9 845
e 9 944
e 9 717
e 9 405
e 9 976
e 10 495
e 10 749
e 10 558
e 10 172
e 11 882
e 11 897
e 11 578
e 11 69
e 11 318
e 12 160
e 12 198
e 12 854
e 12 554
e 12 540
e 12 925
e 13 102
e 13 123
e 13 988
e 13 854
e 13 995
e 14 261
e 14 314
e 14 950
e 14 270
e 15 972
e 15 32
e 15 745
e 15 36
e 21 122
e 21 741
e 21 161
e 21 42
e 21 904
e 21 936
e 22 188
e 22 536
e 22 519
e 23 589
e 23 682
e 24 349
e 24 235
e 24 819
e 24 467
e 25 751
e 25 117
e 25 451
e 25 460
e 26 573
e 26 930
e 26 421
e 27 740
e 27 567
e 27 805
e 27 646
e 27 443
e 28 293
e 28 375
e 28 861
e 28 444
e 28 562
e 28 725
e 29 295
e 29 624
e 29 839
e 29 898
e 30 458
e 30 170
e 30 940
e 30 965
e 30 554
e 30 982
e 31 662
e 31 879
e 31 558
e 31 914
e 31 220
e 31 883
e 31 649
e 32 879
e 32 787
e 32 806
e 33 792
e 33 214
e 33 676
e 34 477
e 34 95
e 34 299
e 34 379
e 34 390
e 36 356
e 36 931
e 36 551
e 36 783
e 37 169
e 37 361
e 37 739
e 37 161
e 39 714
e 39 744
e 39 929
e 39 800
e 39 418
e 39 618
e 39 767
e 40 346
e 40 665
e 40 117
e 40 994
e 40 352
e 42 844
e 42 676
e 42 914
e 42 589
e 43 785
e 43 384
e 43 947
e 43 155
e 43 427
e 43 763
e 44 988
e 44 114
e 44 507
e 44 273
e 44 599
e 45 732
e 45 951
e 45 394
e 45 444
e 45 675
e 45 996
e 45 245
e 46 714
e 46 768
e 46 668
e 46 735
e 49 885
e 49 673
e 49 894
e 50 731
e 50 868
e 50 349
e 50 701
e 53 590
e 53 526
e 53 388
e 53 67
e 53 323
e 53 121
e 54 890
e 54 430
e 54 636
e 54 241
e 55 643
e 55 873
e 55 720
e 55 821
e 55 648
e 56 78
e 56 811
e 56 735
e 56 687
e 56 319
e 57 309
e 57 217
e 57 235
e 57 83
e 57 363
e 57 228
e 57 941
e 58 605
e 58 270
e 58 909
e 58 925
e 61 581
e 61 770
e 61 695
e 61 359
e 63 425
e 63 623
e 63 159
e 63 254
e 64 533
e 64 826
e 64 417
e 65 898
e 65 592
e 65 456
e 65 73
e 66 916
e 66 702
e 66 243
e 66 975
e 67 985
e 67 332
e 67 666
e 67 788
e 67 321
e 67 411
e 68 931
e 68 953
e 68 258
e 69 859
e 69 99
e 69 189
e 70 305
e 70 123
e 70 280
e 70 447
e 73 590
e 73 258
e 75 872
e 75 418
e 75 638
e 75 839
e 75 649
e 75 501
e 76 615
e 76 830
e 76 785
e 77 614
e 77 830
e 77 117
e 77 451
e 77 251
e 78 659
e 78 413
e 78 231
e 78 841
e 78 436
e 79 413
e 79 885
e 79 141
e 79 891
e 79 136
e 81 968
e 81 273
e 81 855
e 83 896
e 84 245
e 84 398
e 84 214
e 84 278
e 85 755
e 85 138
e 85 471
e 85 809
e 91 635
e 91 806
e 91 817
e 93 773
e 93 478
e 93 501
e 95 369
e 95 558
e 95 971
e 95 655
e 95 271
e 96 795
e 96 543
e 96 846
e 96 834
e 97 216
e 97 707
e 97 388
e 97 803
e 97 155
e 99 961
e 99 731
e 99 323
e 99 223
e 99 279
e 99 759
e 99 809
e 100 710
e 100 481
e 100 849
e 100 475
e 100 146
e 100 956
e 100 142
e 100 234
e 102 811
e 102 453
e 102 485
e 102 721
e 103 457
e 103 449
e 103 425
e 103 279
e 103 201
e 107 576
e 107 717
e 107 939
e 108 580
e 108 898
e 108 693
e 108 283
e 109 717
e 109 887
e 109 204
e 110 227
e 110 222
e 110 538
e 110 583
e 110 542
e 113 558
e 113 806
e 113 273
e 113 148
e 113 594
e 114 339
e 114 771
e 114 271
e 116 815
e 116 232
e 116 858
e 117 175
e 117 792
e 117 517
e 117 198
e 117 848
e 117 974
e 120 519
e 120 860
e 120 303
e 120 963
e 120 788
e 121 530
e 121 390
e 121 893
e 122 809
e 122 445
e 122 153
e 122 285
e 122 278
e 122 637
e 122 593
e 123 348
e 123 688
e 123 840
e 125 870
e 125 824
e 125 384
e 125 873
e 126 571
e 126 615
e 126 195
e 126 798
e 126 605
e 126 559
e 128 972
e 128 835
e 128 453
e 128 151
e 128 767
e 128 687
e 129 742
e 129 922
e 130 309
e 130 855
e 130 950
e 133 490
e 133 171
e 133 343
e 133 270
e 134 509
e 134 465
e 134 295
e 134 158
e 134 432
e 136 274
e 136 306
e 137 578
e 137 598
e 137 629
e 137 971
e 137 494
e 137 536
e 138 572
e 138 663
e 139 320
e 139 494
e 139 489
e 140 318
e 140 688
e 140 651
e 141 237
e 141 375
e 141 424
e 141 314
e 141 729
e 142 426
e 142 475
e 142 410
e 142 843
e 143 372
e 143 734
e 143 527
e 144 444
e 144 755
e 144 160
e 144 283
e 144 926
e 145 750
e 145 219
e 145 777
e 145 839
e 145 325
e 146 976
e 146 575
e 147 979
e 147 251
e 147 711
e 148 989
e 148 258
e 150 599
e 150 929
e 150 690
e 151 654
e 151 805
e 151 449
e 151 258
e 151 557
e 153 154
e 153 280
e 153 497
e 153 790
e 154 437
e 154 892
e 154 177
e 154 835
e 154 732
e 155 364
e 155 325
e 155 400
e 155 191
e 155 471
e 156 940
e 156 464
e 156 526
e 156 677
e 156 667
e 157 355
e 157 453
e 157 346
e 158 609
e 158 758
e 158 323
e 159 432
e 159 939
e 159 396
e 159 708
e 160 524
e 160 965
e 160 466
e 161 278
e 161 564
e 161 361
e 161 929
e 162 576
e 162 538
e 162 873
e 162 388
e 163 575
e 163 428
e 163 627
e 163 775
e 166 310
e 166 222
e 166 775
e 166 621
e 167 233
e 167 791
e 167 976
e 167 718
e 168 898
e 168 388
e 168 897
e 169 830
e 169 458
e 169 240
e 169 330
e 170 444
e 170 700
e 170 667
e 170 991
e 171 912
e 171 654
e 171 254
e 171 493
e 171 541
e 171 485
e 172 686
e 172 305
e 172 979
e 172 464
e 173 710
e 173 834
e 173 845
e 173 383
e 173 919
e 175 771
e 175 833
e 175 866
e 175 262
e 177 380
e 177 508
e 177 499
e 177 872
e 177 675
e 180 878
e 180 261
e 180 184
e 183 992
e 183 775
e 183 922
e 183 789
e 184 618
e 184 801
e 184 872
e 187 645
e 187 465
e 187 554
e 187 680
e 187 636
e 188 560
e 188 729
e 188 694
e 188 595
e 188 469
e 189 492
e 189 233
e 189 191
e 189 817
e 189 434
e 190 793
e 190 447
e 190 807
e 190 546
e 191 830
e 191 708
e 191 451
e 191 960
e 191 241
e 191 913
e 192 675
e 192 736
e 192 819
e 192 505
e 194 293
e 194 662
e 194 747
e 194 464
e 194 531
e 194 555
e 194 789
e 195 743
e 195 396
e 195 218
e 197 207
e 197 747
e 197 312
e 198 706
e 199 813
e 199 914
e 199 550
e 199 960
e 199 247
e 200 893
e 200 274
e 200 576
e 201 391
e 201 731
e 201 262
e 202 270
e 202 224
e 202 681
e 202 931
e 202 220
e 202 520
e 204 811
e 204 750
e 204 871
e 204 937
e 207 779
e 207 651
e 207 977
e 207 583
e 208 609
e 208 260
e 208 543
e 208 349
e 208 692
e 208 499
e 209 722
e 209 316
e 209 823
e 209 438
e 209 383
e 210 456
e 210 653
e 210 365
e 213 897
e 213 269
e 213 909
e 214 224
e 214 761
e 214 902
e 216 624
e 216 961
e 216 944
e 216 453
e 216 348
e 216 626
e 216 921
e 217 380
e 217 991
e 217 836
e 218 677
e 218 956
e 219 604
e 219 960
e 219 638
e 219 925
e 219 466
e 220 577
e 220 961
e 221 349
e 221 343
e 221 888
e 221 798
e 222 831
e 222 270
e 222 413
e 222 883
e 223 519
e 223 577
e 223 729
e 224 742
e 224 940
e 224 348
e 224 754
e 225 843
e 225 970
e 225 378
e 225 370
e 226 950
e 226 824
e 226 400
e 227 865
e 227 459
e 228 739
e 228 755
e 228 667
e 228 336
e 229 787
e 229 710
e 229 435
e 231 504
e 231 576
e 232 912
e 232 976
e 232 378
e 232 668
e 233 273
e 233 303
e 234 470
e 234 424
e 234 555
e 235 391
e 235 753
e 235 428
e 235 241
e 235 621
e 235 871
e 236 594
e 236 954
e 236 873
e 237 379
e 237 740
e 237 996
e 238 332
e 238 963
e 238 287
e 238 760
e 239 261
e 239 563
e 239 345
e 240 559
e 240 688
e 241 256
e 241 965
e 241 343
e 241 790
e 241 992
e 242 990
e 242 627
e 242 953
e 242 339
e 242 892
e 243 372
e 243 318
e 243 940
e 243 538
e 243 765
e 244 248
e 244 424
e 244 350
e 245 970
e 245 603
e 245 722
e 245 599
e 247 795
e 247 449
e 247 937
e 247 656
e 248 794
e 248 508
e 248 683
e 248 363
e 248 346
e 248 258
e 248 939
e 250 808
e 250 605
e 250 736
e 251 792
e 251 334
e 251 666
e 254 800
e 254 527
e 254 603
e 254 741
e 254 872
e 254 325
e 254 725
e 254 665
e 254 563
e 254 728
e 254 620
e 255 367
e 255 384
e 255 636
e 255 584
e 256 581
e 256 655
e 258 635
e 258 717
e 258 893
e 259 338
e 259 420
e 259 720
e 260 567
e 260 721
e 260 654
e 260 470
e 260 615
e 261 472
e 261 509
e 261 738
e 261 914
e 262 350
e 262 320
e 263 642
e 263 999
e 263 634
e 263 383
e 263 569
e 265 892
e 265 613
e 265 367
e 265 887
e 266 765
e 266 502
e 266 821
e 266 586
e 267 972
e 267 277
e 267 346
e 267 365
e 267 655
e 269 663
e 269 437
e 269 795
e 269 421
e 270 676
e 270 989
e 270 551
e 270 692
e 270 653
e 271 873
e 271 867
e 271 792
e 272 625
e 272 795
e 272 351
e 272 449
e 273 831
e 273 840
e 273 332
e 273 563
e 273 632
e 273 366
e 273 717
e 274 410
e 274 709
e 274 900
e 274 372
e 277 689
e 277 557
e 278 309
e 278 860
e 278 580
e 278 654
e 279 787
e 279 895
e 280 754
e 280 663
e 280 999
e 280 361
e 280 985
e 283 302
e 284 509
e 284 370
e 284 870
e 285 646
e 285 373
e 285 492
e 285 947
e 286 293
e 286 550
e 286 785
e 286 825
e 287 708
e 287 937
e 287 624
e 287 396
e 289 763
e 289 314
e 289 530
e 290 689
e 290 645
e 290 301
e 291 564
e 291 530
e 291 874
e 291 797
e 292 460
e 292 381
e 292 735
e 293 575
e 293 937
e 293 351
e 295 529
e 295 821
e 297 470
e 297 365
e 297 824
e 298 617
e 298 486
e 298 989
e 298 359
e 299 575
e 299 694
e 300 307
e 300 998
e 300 314
e 300 740
e 300 494
e 301 567
e 301 760
e 301 318
e 302 667
e 302 681
e 302 682
e 303 318
e 303 405
e 305 356
e 306 684
e 306 860
e 306 331
e 307 671
e 307 837
e 307 772
e 307 887
e 309 781
e 309 700
e 309 436
e 310 971
e 310 372
e 310 485
e 311 552
e 311 402
e 311 616
e 311 743
e 311 620
e 312 315
e 312 542
e 312 803
e 312 364
e 312 861
e 312 369
e 314 823
e 314 378
e 314 767
e 314 419
e 314 782
e 314 795
e 315 960
e 315 716
e 315 990
e 315 861
e 315 338
e 316 573
e 316 639
e 318 865
e 318 361
e 319 465
e 319 432
e 320 976
e 320 953
e 321 832
e 321 678
e 323 799
e 323 772
e 325 332
e 325 815
e 325 478
e 326 367
e 326 690
e 326 693
e 329 742
e 329 395
e 329 381
e 329 503
e 329 942
e 329 336
e 330 940
e 330 723
e 331 831
e 331 965
e 331 753
e 331 581
e 331 610
e 334 517
e 336 338
e 336 948
e 336 411
e 337 399
e 337 408
e 337 501
e 338 746
e 338 708
e 338 748
e 338 981
e 339 857
e 339 966
e 342 913
e 342 438
e 342 440
e 342 490
e 343 374
e 343 982
e 345 417
e 345 394
e 345 808
e 345 499
e 346 836
e 346 580
e 346 767
e 346 840
e 346 461
e 346 645
e 346 593
e 348 909
e 348 398
e 348 435
e 350 865
e 350 509
e 351 399
e 351 800
e 352 376
e 352 390
e 355 592
e 355 412
e 355 502
e 356 878
e 356 735
e 359 872
e 359 965
e 361 976
e 361 817
e 361 589
e 363 627
e 363 892
e 363 477
e 364 493
e 364 960
e 364 645
e 364 673
e 364 603
e 365 520
e 365 459
e 366 991
e 366 867
e 366 781
e 367 1000
e 367 371
e 367 413
e 368 651
e 368 970
e 368 857
e 369 561
e 369 500
e 369 804
e 369 926
e 370 602
e 370 585
e 370 563
e 371 458
e 371 701
e 371 726
e 371 706
e 372 531
e 373 415
e 373 716
e 373 707
e 373 632
e 373 599
e 374 878
e 374 902
e 375 923
e 375 477
e 376 866
e 376 815
e 376 703
e 377 410
e 377 940
e 377 693
e 377 378
e 378 500
e 378 594
e 379 502
e 379 681
e 379 810
e 380 856
e 380 637
e 380 584
e 381 398
e 381 779
e 381 826
e 382 602
e 382 756
e 382 907
e 383 790
e 383 519
e 383 671
e 383 775
e 384 430
e 388 457
e 388 746
e 388 574
e 390 563
e 390 735
e 391 668
e 391 975
e 391 446
e 393 824
e 393 763
e 393 970
e 393 693
e 393 514
e 393 736
e 393 551
e 394 811
e 394 473
e 395 909
e 395 744
e 395 851
e 395 550
e 396 512
e 396 832
e 398 807
e 398 791
e 399 603
e 399 901
e 399 489
e 400 445
e 400 867
e 400 826
e 400 749
e 400 754
e 402 485
e 402 651
e 405 594
e 405 999
e 408 808
e 408 439
e 408 809
e 410 782
e 411 480
e 411 790
e 411 419
e 411 676
e 412 536
e 412 858
e 412 968
e 412 477
e 413 426
e 413 534
e 413 976
e 415 632
e 415 728
e 415 530
e 417 977
e 417 979
e 417 809
e 417 906
e 418 677
e 418 485
e 418 493
e 418 602
e 419 666
e 419 420
e 420 692
e 420 906
e 420 782
e 421 848
e 424 872
e 425 426
e 425 432
e 425 765
e 425 756
e 425 988
e 425 789
e 426 471
e 426 604
e 427 717
e 427 765
e 428 781
e 430 925
e 430 941
e 430 710
e 430 643
e 430 723
e 430 481
e 432 909
e 432 701
e 432 806
e 432 893
e 434 787
e 434 684
e 435 731
e 436 900
e 436 499
e 436 703
e 436 765
e 436 784
e 436 736
e 437 461
e 437 898
e 437 523
e 437 586
e 438 690
e 438 496
e 438 543
e 439 527
e 439 695
e 440 951
e 440 717
e 443 823
e 443 972
e 443 641
e 444 913
e 444 681
e 444 548
e 445 977
e 445 723
e 446 939
e 446 533
e 447 914
e 449 677
e 449 494
e 449 825
e 453 768
e 453 867
e 453 636
e 453 465
e 453 455
e 453 594
e 453 557
e 455 600
e 455 528
e 457 739
e 457 698
e 457 906
e 458 912
e 459 682
e 459 475
e 460 981
e 461 882
e 461 745
e 464 859
e 465 801
e 466 548
e 467 709
e 467 748
e 467 793
e 469 726
e 469 611
e 469 921
e 470 514
e 470 662
e 470 906
e 470 607
e 471 637
e 471 824
e 472 895
e 472 507
e 472 569
e 472 538
e 472 851
e 473 646
e 473 795
e 477 563
e 477 758
e 478 974
e 478 530
e 480 750
e 480 493
e 481 948
e 481 808
e 481 801
e 481 698
e 481 914
e 483 673
e 483 505
e 483 758
e 483 780
e 483 811
e 485 636
e 486 620
e 486 514
e 489 994
e 490 562
e 490 589
e 490 921
e 490 785
e 490 721
e 490 492
e 493 923
e 493 612
e 493 682
e 494 532
e 495 974
e 495 511
e 496 833
e 496 624
e 496 759
e 497 768
e 497 854
e 499 896
e 499 600
e 499 977
e 500 610
e 500 532
e 500 732
e 501 830
e 502 936
e 502 774
e 502 684
e 503 681
e 503 841
e 503 690
e 504 642
e 504 638
e 505 514
e 506 875
e 506 610
e 506 778
e 506 944
e 507 694
e 508 683
e 508 987
e 509 898
e 511 634
e 511 793
e 512 949
e 512 534
e 514 710
e 514 837
e 514 782
e 517 614
e 517 616
e 517 967
e 517 864
e 519 643
e 520 959
e 520 843
e 520 787
e 520 826
e 523 533
e 523 956
e 523 901
e 524 753
e 524 915
e 526 805
e 526 840
e 526 890
e 526 573
e 527 541
e 527 634
e 527 792
e 528 658
e 528 798
e 528 771
e 529 725
e 529 610
e 529 776
e 530 653
e 530 559
e 531 551
e 531 905
e 531 783
e 532 674
e 532 940
e 534 760
e 534 772
e 536 959
e 536 744
e 538 969
e 538 949
e 540 867
e 540 580
e 540 667
e 540 609
e 540 897
e 541 605
e 541 694
e 541 749
e 541 836
e 542 720
e 543 618
e 546 929
e 546 720
e 548 793
e 548 661
e 550 871
e 550 743
e 551 873
e 552 673
e 552 616
e 552 929
e 553 691
e 553 668
e 553 745
e 554 992
e 554 678
e 554 834
e 554 563
e 554 954
e 555 791
e 555 600
e 557 861
e 557 940
e 558 651
e 558 831
e 558 784
e 558 950
e 558 759
e 559 1000
e 559 787
e 559 891
e 560 691
e 560 912
e 560 791
e 560 859
e 560 824
e 561 830
e 562 649
e 562 780
e 562 867
e 562 894
e 562 856
e 563 676
e 563 906
e 564 584
e 564 912
e 567 1000
e 567 800
e 567 782
e 567 888
e 567 749
e 569 888
e 571 778
e 571 968
e 571 749
e 572 773
e 572 860
e 572 851
e 573 809
e 573 808
e 574 742
e 574 680
e 575 703
e 575 616
e 577 856
e 577 943
e 578 811
e 578 937
e 580 592
e 580 738
e 581 632
e 581 674
e 583 749
e 585 739
e 585 638
e 586 726
e 586 858
e 589 931
e 589 634
e 589 903
e 590 939
e 591 636
e 591 607
e 591 777
e 591 982
e 592 649
e 592 646
e 593 825
e 593 990
e 593 799
e 594 684
e 594 632
e 594 751
e 595 883
e 595 613
e 598 728
e 598 688
e 599 811
e 599 787
e 599 819
e 599 915
e 599 960
e 600 849
e 602 800
e 602 868
e 603 916
e 604 627
e 605 611
e 605 707
e 607 970
e 609 893
e 609 916
e 609 871
e 609 698
e 610 648
e 610 807
e 611 951
e 611 744
e 612 686
e 612 746
e 612 692
e 612 680
e 613 617
e 613 891
e 613 926
e 614 898
e 614 731
e 615 815
e 617 902
e 617 896
e 618 830
e 620 902
e 621 694
e 621 759
e 623 942
e 625 1000
e 625 770
e 625 944
e 626 665
e 626 691
e 626 940
e 627 969
e 629 678
e 629 914
e 632 798
e 634 636
e 634 936
e 635 736
e 636 968
e 637 755
e 638 738
e 639 791
e 639 682
e 641 819
e 641 975
e 642 907
e 642 775
e 645 941
e 645 895
e 648 671
e 648 751
e 649 811
e 649 954
e 649 984
e 651 846
e 651 934
e 651 688
e 651 761
e 653 840
e 653 848
e 654 659
e 654 972
e 654 915
e 655 844
e 655 710
e 656 895
e 656 984
e 658 691
e 658 966
e 659 709
e 659 971
e 661 836
e 661 922
e 663 734
e 663 702
e 665 845
e 666 745
e 666 874
e 667 682
e 667 923
e 667 700
e 667 971
e 668 866
e 668 743
e 671 727
e 671 776
e 673 797
e 674 919
e 675 882
e 675 892
e 676 848
e 676 860
e 677 939
e 678 989
e 678 808
e 680 887
e 680 711
e 681 975
e 682 961
e 683 904
e 684 789
e 686 996
e 686 873
e 687 992
e 688 998
e 688 747
e 689 716
e 691 736
e 692 729
e 693 834
e 694 798
e 694 785
e 694 858
e 695 745
e 698 825
e 700 985
e 701 711
e 701 790
e 702 735
e 702 801
e 702 894
e 706 965
e 708 915
e 710 734
e 714 800
e 714 922
e 716 807
e 716 777
e 716 950
e 717 956
e 717 736
e 717 846
e 718 930
e 718 923
e 718 747
e 720 925
e 720 744
e 720 750
e 722 756
e 723 734
e 723 903
e 725 943
e 725 931
e 727 768
e 727 959
e 729 948
e 729 890
e 729 989
e 729 774
e 731 774
e 731 929
e 732 781
e 732 979
e 735 806
e 735 753
e 735 834
e 736 914
e 740 897
e 740 849
e 741 841
e 741 797
e 741 831
e 745 755
e 746 845
e 746 761
e 747 966
e 748 921
e 749 942
e 750 893
e 751 999
e 753 776
e 754 907
e 754 870
e 756 856
e 759 941
e 760 888
e 760 804
e 760 965
e 760 904
e 761 879
e 763 819
e 763 845
e 765 840
e 766 953
e 766 815
e 766 923
e 767 961
e 770 966
e 770 872
e 771 848
e 771 875
e 771 774
e 771 886
e 772 824
e 773 865
e 774 900
e 775 885
e 775 865
e 776 992
e 776 825
e 778 994
e 778 940
e 778 998
e 779 893
e 780 799
e 780 903
e 780 934
e 781 859
e 782 984
e 783 985
e 783 892
e 783 930
e 784 906
e 785 919
e 787 885
e 788 893
e 789 835
e 791 839
e 792 837
e 792 913
e 794 947
e 794 815
e 795 886
e 795 859
e 797 902
e 800 951
e 800 960
e 803 989
e 804 874
e 808 966
e 809 942
e 810 956
e 810 831
e 811 959
e 813 896
e 813 943
e 815 981
e 817 965
e 817 848
e 824 864
e 830 979
e 831 930
e 832 875
e 833 845
e 833 930
e 834 971
e 835 931
e 839 849
e 844 907
e 844 887
e 848 864
e 848 912
e 851 914
e 855 948
e 856 971
e 857 900
e 858 934
e 860 868
e 864 974
e 864 942
e 865 995
e 867 940
e 867 963
e 868 951
e 871 987
e 872 894
e 872 942
e 873 949
e 875 912
e 875 967
e 886 906
e 887 988
e 897 992
e 901 992
e 905 960
e 905 943
e 915 947
e 915 981
e 921 987
e 923 951
e 926 967
e 948 981
e 949 995
e 953 967
e 956 971
e 956 999
e 960 984
e 982 999
